<number of tasks>
70

<cycle time>
220

<task times>
1 17
2 66
3 54
4 52
5 6
6 88
7 21
8 128
9 68
10 70
11 85
12 21
13 134
14 135
15 94
16 90
17 50
18 143
19 19
20 54
21 50
22 40
23 73
24 12
25 152
26 42
27 45
28 74
29 26
30 11
31 31
32 50
33 102
34 46
35 35
36 40
37 2
38 1
39 3
40 13
41 16
42 25
43 21
44 43
45 30
46 83
47 89
48 56
49 59
50 43
51 11
52 26
53 44
54 121
55 38
56 68
57 22
58 7
59 16
60 32
61 25
62 27
63 156
64 28
65 15
66 26
67 18
68 72
69 23
70 27

<precedence relations>
1,2
1,41
1,69
1,70
2,3
3,4
3,68
4,6
4,7
5,6
5,24
5,30
6,8
7,8
8,12
9,10
10,11
11,12
12,13
12,14
13,23
14,23
15,16
16,17
16,18
17,19
18,19
19,20
19,22
19,57
20,21
21,23
22,23
23,25
23,31
23,33
24,25
25,26
25,27
25,28
25,29
26,35
27,35
28,35
29,35
30,31
31,32
32,35
33,34
34,35
35,36
35,44
35,48
35,51
35,53
35,56
35,60
35,61
35,62
36,37
37,38
38,39
39,40
40,42
41,42
42,43
43,50
44,45
45,46
46,47
47,50
48,49
49,50
51,52
52,54
53,54
54,55
57,58
58,59
59,60
61,65
62,63
63,64
64,65
64,66
64,67

<setup times forward>
1,9:20
1,10:7
1,11:5
1,15:20
1,16:8
1,17:5
1,18:11
1,19:11
1,20:11
1,21:1
1,22:18
1,24:20
1,30:8
1,41:20
1,57:1
1,58:1
1,59:18
1,69:8
1,70:20
2,9:20
2,10:7
2,11:5
2,15:20
2,16:8
2,17:5
2,18:11
2,19:11
2,20:11
2,21:1
2,22:18
2,24:20
2,30:8
2,41:20
2,57:1
2,58:1
2,59:18
2,69:8
2,70:20
3,9:20
3,10:7
3,11:5
3,15:20
3,16:8
3,17:5
3,18:11
3,19:11
3,20:11
3,21:1
3,22:18
3,24:20
3,30:8
3,41:20
3,57:1
3,58:1
3,59:18
3,68:26
3,69:8
3,70:20
4,6:8
4,9:20
4,10:7
4,11:5
4,15:20
4,16:8
4,17:5
4,18:11
4,19:11
4,20:11
4,21:1
4,22:18
4,24:20
4,30:8
4,41:20
4,57:1
4,58:1
4,59:18
4,68:26
4,69:8
4,70:20
5,6:8
5,9:20
5,10:7
5,11:5
5,15:20
5,16:8
5,17:5
5,18:11
5,19:11
5,20:11
5,21:1
5,22:18
5,24:20
5,30:8
5,41:20
5,57:1
5,58:1
5,59:18
5,68:26
5,69:8
5,70:20
6,7:8
6,8:15
6,9:28
6,10:15
6,11:13
6,15:28
6,17:13
6,18:3
6,19:3
6,20:3
6,21:7
6,22:10
6,24:28
6,41:28
6,57:7
6,58:7
6,59:10
6,68:18
6,70:28
7,6:8
7,8:7
7,9:20
7,10:7
7,11:5
7,15:20
7,16:8
7,17:5
7,18:11
7,19:11
7,20:11
7,21:1
7,22:18
7,24:20
7,30:8
7,41:20
7,57:1
7,58:1
7,59:18
7,68:26
7,69:8
7,70:20
8,9:13
8,11:2
8,12:2
8,15:13
8,16:15
8,17:2
8,18:18
8,19:18
8,20:18
8,21:8
8,22:25
8,24:13
8,30:15
8,41:13
8,57:8
8,58:8
8,59:25
8,68:33
8,69:15
8,70:13
9,1:20
9,2:20
9,3:20
9,4:20
9,5:20
9,6:28
9,7:20
9,8:13
9,10:13
9,16:28
9,17:15
9,18:31
9,19:31
9,20:31
9,21:21
9,22:38
9,30:28
9,57:21
9,58:21
9,59:38
9,68:46
9,69:28
10,1:7
10,2:7
10,3:7
10,4:7
10,5:7
10,6:15
10,7:7
10,11:2
10,15:13
10,16:15
10,17:2
10,18:18
10,19:18
10,20:18
10,21:8
10,22:25
10,24:13
10,30:15
10,41:13
10,57:8
10,58:8
10,59:25
10,68:33
10,69:15
10,70:13
11,1:5
11,2:5
11,3:5
11,4:5
11,5:5
11,6:13
11,7:5
11,8:2
11,15:15
11,16:13
11,18:16
11,19:16
11,20:16
11,21:6
11,22:23
11,24:15
11,30:13
11,41:15
11,57:6
11,58:6
11,59:23
11,68:31
11,69:13
11,70:15
12,13:23
12,14:6
12,15:15
12,16:13
12,18:16
12,19:16
12,20:16
12,21:6
12,22:23
12,24:15
12,30:13
12,41:15
12,57:6
12,58:6
12,59:23
12,68:31
12,69:13
12,70:15
13,14:17
13,15:38
13,16:10
13,17:23
13,18:7
13,19:7
13,20:7
13,21:17
13,23:29
13,24:38
13,30:10
13,41:38
13,57:17
13,58:17
13,68:8
13,69:10
13,70:38
14,13:17
14,15:21
14,16:7
14,17:6
14,18:10
14,19:10
14,20:10
14,22:17
14,23:12
14,24:21
14,30:7
14,41:21
14,59:17
14,68:25
14,69:7
14,70:21
15,1:20
15,2:20
15,3:20
15,4:20
15,5:20
15,6:28
15,7:20
15,8:13
15,10:13
15,11:15
15,12:15
15,13:38
15,14:21
15,16:28
15,30:28
15,68:46
15,69:28
16,1:8
16,2:8
16,3:8
16,4:8
16,5:8
16,7:8
16,8:15
16,9:28
16,10:15
16,11:13
16,12:13
16,13:10
16,14:7
16,17:13
16,18:3
16,24:28
16,41:28
16,68:18
16,70:28
17,1:5
17,2:5
17,3:5
17,4:5
17,5:5
17,6:13
17,7:5
17,8:2
17,9:15
17,10:2
17,13:23
17,14:6
17,18:16
17,19:16
17,24:15
17,30:13
17,41:15
17,68:31
17,69:13
17,70:15
18,1:11
18,2:11
18,3:11
18,4:11
18,5:11
18,6:3
18,7:11
18,8:18
18,9:31
18,10:18
18,11:16
18,12:16
18,13:7
18,14:10
18,17:16
18,24:31
18,30:3
18,41:31
18,68:15
18,69:3
18,70:31
19,1:11
19,2:11
19,3:11
19,4:11
19,5:11
19,6:3
19,7:11
19,8:18
19,9:31
19,10:18
19,11:16
19,12:16
19,13:7
19,14:10
19,22:7
19,24:31
19,30:3
19,41:31
19,57:10
19,68:15
19,69:3
19,70:31
20,1:11
20,2:11
20,3:11
20,4:11
20,5:11
20,6:3
20,7:11
20,8:18
20,9:31
20,10:18
20,11:16
20,12:16
20,13:7
20,14:10
20,21:10
20,22:7
20,24:31
20,30:3
20,41:31
20,57:10
20,58:10
20,59:7
20,68:15
20,69:3
20,70:31
21,1:1
21,2:1
21,3:1
21,4:1
21,5:1
21,6:7
21,7:1
21,8:8
21,9:21
21,10:8
21,11:6
21,12:6
21,13:17
21,22:17
21,23:12
21,24:21
21,30:7
21,41:21
21,59:17
21,68:25
21,69:7
21,70:21
22,1:18
22,2:18
22,3:18
22,4:18
22,5:18
22,6:10
22,7:18
22,8:25
22,9:38
22,10:25
22,11:23
22,12:23
22,14:17
22,20:7
22,21:17
22,23:29
22,24:38
22,30:10
22,41:38
22,57:17
22,58:17
22,68:8
22,69:10
22,70:38
23,24:9
23,25:19
23,30:19
23,41:9
23,57:12
23,58:12
23,59:29
23,68:37
23,69:19
23,70:9
24,1:20
24,2:20
24,3:20
24,4:20
24,6:28
24,7:20
24,8:13
24,10:13
24,11:15
24,12:15
24,13:38
24,14:21
24,16:28
24,17:15
24,18:31
24,19:31
24,20:31
24,21:21
24,22:38
24,23:9
24,25:28
24,30:28
24,31:9
24,32:28
24,33:9
24,34:43
24,57:21
24,58:21
24,59:38
24,68:46
24,69:28
25,26:15
25,27:15
25,28:15
25,29:5
25,31:19
25,33:19
25,34:15
25,41:28
25,57:7
25,58:7
25,59:10
25,68:18
25,70:28
26,29:20
26,30:15
26,31:34
26,32:15
26,33:34
26,35:20
26,41:43
26,57:22
26,58:22
26,59:5
26,68:3
26,69:15
26,70:43
27,29:20
27,30:15
27,31:34
27,32:15
27,33:34
27,35:20
27,41:43
27,57:22
27,58:22
27,59:5
27,68:3
27,69:15
27,70:43
28,29:20
28,30:15
28,31:34
28,32:15
28,33:34
28,35:20
28,41:43
28,57:22
28,58:22
28,59:5
28,68:3
28,69:15
28,70:43
29,26:20
29,27:20
29,28:20
29,30:5
29,31:14
29,32:5
29,33:14
29,34:20
29,41:23
29,57:2
29,58:2
29,59:15
29,68:23
29,69:5
29,70:23
30,1:8
30,2:8
30,3:8
30,4:8
30,7:8
30,8:15
30,9:28
30,10:15
30,11:13
30,12:13
30,13:10
30,14:7
30,15:28
30,17:13
30,18:3
30,19:3
30,20:3
30,21:7
30,22:10
30,23:19
30,24:28
30,26:15
30,27:15
30,28:15
30,29:5
30,31:19
30,33:19
30,34:15
30,41:28
30,57:7
30,58:7
30,59:10
30,68:18
30,70:28
31,24:9
31,25:19
31,26:34
31,27:34
31,28:34
31,29:14
31,32:19
31,34:34
31,41:9
31,57:12
31,58:12
31,59:29
31,68:37
31,69:19
31,70:9
32,24:28
32,26:15
32,27:15
32,28:15
32,29:5
32,33:19
32,34:15
32,35:5
32,41:28
32,57:7
32,58:7
32,59:10
32,68:18
32,70:28
33,24:9
33,25:19
33,26:34
33,27:34
33,28:34
33,29:14
33,30:19
33,32:19
33,34:34
33,41:9
33,57:12
33,58:12
33,59:29
33,68:37
33,69:19
33,70:9
34,24:43
34,25:15
34,29:20
34,30:15
34,31:34
34,32:15
34,35:20
34,41:43
34,57:22
34,58:22
34,59:5
34,68:3
34,69:15
34,70:43
35,36:17
35,41:23
35,48:17
35,56:20
35,57:2
35,58:2
35,59:15
35,60:20
35,61:20
35,68:23
35,69:5
35,70:23
36,41:6
36,44:17
36,45:17
36,46:40
36,47:5
36,49:40
36,51:17
36,52:9
36,53:17
36,55:5
36,56:37
36,57:15
36,58:15
36,59:32
36,60:37
36,61:37
36,62:17
36,63:9
36,64:9
36,65:37
36,66:37
36,67:37
36,68:40
36,69:22
36,70:6
37,41:6
37,44:17
37,45:17
37,46:40
37,47:5
37,49:40
37,51:17
37,52:9
37,53:17
37,55:5
37,56:37
37,57:15
37,58:15
37,59:32
37,60:37
37,61:37
37,62:17
37,63:9
37,64:9
37,65:37
37,66:37
37,67:37
37,68:40
37,69:22
37,70:6
38,39:40
38,41:6
38,44:17
38,45:17
38,46:40
38,47:5
38,49:40
38,51:17
38,52:9
38,53:17
38,55:5
38,56:37
38,57:15
38,58:15
38,59:32
38,60:37
38,61:37
38,62:17
38,63:9
38,64:9
38,65:37
38,66:37
38,67:37
38,68:40
38,69:22
38,70:6
39,40:3
39,41:46
39,44:23
39,45:23
39,47:45
39,48:40
39,51:23
39,52:31
39,53:23
39,54:40
39,55:45
39,56:3
39,57:25
39,58:25
39,59:8
39,60:3
39,61:3
39,62:23
39,63:31
39,64:31
39,65:3
39,66:3
39,67:3
39,69:18
39,70:46
40,41:43
40,42:42
40,44:20
40,45:20
40,46:3
40,47:42
40,48:37
40,49:3
40,51:20
40,52:28
40,53:20
40,54:37
40,55:42
40,57:22
40,58:22
40,59:5
40,62:20
40,63:28
40,64:28
40,68:3
40,69:15
40,70:43
41,2:20
41,3:20
41,4:20
41,5:20
41,6:28
41,7:20
41,8:13
41,10:13
41,11:15
41,12:15
41,13:38
41,14:21
41,16:28
41,17:15
41,18:31
41,19:31
41,20:31
41,21:21
41,22:38
41,23:9
41,25:28
41,26:43
41,27:43
41,28:43
41,29:23
41,30:28
41,31:9
41,32:28
41,33:9
41,34:43
41,35:23
41,36:6
41,37:6
41,38:6
41,39:46
41,40:43
41,42:1
41,44:23
41,45:23
41,46:46
41,47:1
41,48:6
41,49:46
41,51:23
41,52:15
41,53:23
41,54:6
41,55:1
41,56:43
41,57:21
41,58:21
41,59:38
41,60:43
41,61:43
41,62:23
41,63:15
41,64:15
41,65:43
41,66:43
41,67:43
41,68:46
41,69:28
42,44:22
42,45:22
42,46:45
42,48:5
42,49:45
42,51:22
42,52:14
42,53:22
42,54:5
42,56:42
42,57:20
42,58:20
42,59:37
42,60:42
42,61:42
42,62:22
42,63:14
42,64:14
42,65:42
42,66:42
42,67:42
42,68:45
42,69:27
42,70:1
43,44:22
43,45:22
43,46:45
43,48:5
43,49:45
43,51:22
43,52:14
43,53:22
43,54:5
43,56:42
43,57:20
43,58:20
43,59:37
43,60:42
43,61:42
43,62:22
43,63:14
43,64:14
43,65:42
43,66:42
43,67:42
43,68:45
43,69:27
43,70:1
44,36:17
44,37:17
44,38:17
44,39:23
44,40:20
44,41:23
44,42:22
44,43:22
44,48:17
44,49:23
44,52:8
44,54:17
44,55:22
44,56:20
44,57:2
44,58:2
44,59:15
44,60:20
44,61:20
44,63:8
44,64:8
44,65:20
44,66:20
44,67:20
44,68:23
44,69:5
44,70:23
45,36:17
45,37:17
45,38:17
45,39:23
45,40:20
45,41:23
45,42:22
45,43:22
45,46:23
45,48:17
45,49:23
45,52:8
45,54:17
45,55:22
45,56:20
45,57:2
45,58:2
45,59:15
45,60:20
45,61:20
45,63:8
45,64:8
45,65:20
45,66:20
45,67:20
45,68:23
45,69:5
45,70:23
46,36:40
46,37:40
46,38:40
46,40:3
46,41:46
46,42:45
46,43:45
46,47:45
46,48:40
46,51:23
46,52:31
46,53:23
46,54:40
46,55:45
46,56:3
46,57:25
46,58:25
46,59:8
46,60:3
46,61:3
46,62:23
46,63:31
46,64:31
46,65:3
46,66:3
46,67:3
46,69:18
46,70:46
47,36:5
47,37:5
47,38:5
47,39:45
47,40:42
47,41:1
47,48:5
47,49:45
47,51:22
47,52:14
47,53:22
47,54:5
47,56:42
47,57:20
47,58:20
47,59:37
47,60:42
47,61:42
47,62:22
47,63:14
47,64:14
47,65:42
47,66:42
47,67:42
47,68:45
47,69:27
47,70:1
48,39:40
48,40:37
48,41:6
48,42:5
48,43:5
48,44:17
48,45:17
48,46:40
48,47:5
48,49:40
48,51:17
48,52:9
48,53:17
48,55:5
48,56:37
48,57:15
48,58:15
48,59:32
48,60:37
48,61:37
48,62:17
48,63:9
48,64:9
48,65:37
48,66:37
48,67:37
48,68:40
48,69:22
48,70:6
49,36:40
49,37:40
49,38:40
49,40:3
49,41:46
49,42:45
49,43:45
49,44:23
49,45:23
49,47:45
49,50:45
49,51:23
49,52:31
49,53:23
49,54:40
49,55:45
49,56:3
49,57:25
49,58:25
49,59:8
49,60:3
49,61:3
49,62:23
49,63:31
49,64:31
49,65:3
49,66:3
49,67:3
49,69:18
49,70:46
50,51:22
50,52:14
50,53:22
50,54:5
50,56:42
50,57:20
50,58:20
50,59:37
50,60:42
50,61:42
50,62:22
50,63:14
50,64:14
50,65:42
50,66:42
50,67:42
50,68:45
50,69:27
50,70:1
51,36:17
51,37:17
51,38:17
51,39:23
51,40:20
51,41:23
51,42:22
51,43:22
51,46:23
51,47:22
51,48:17
51,49:23
51,50:22
51,52:8
51,56:20
51,57:2
51,58:2
51,59:15
51,60:20
51,61:20
51,63:8
51,64:8
51,65:20
51,66:20
51,67:20
51,68:23
51,69:5
51,70:23
52,36:9
52,37:9
52,38:9
52,39:31
52,40:28
52,41:15
52,42:14
52,43:14
52,44:8
52,45:8
52,46:31
52,47:14
52,48:9
52,49:31
52,50:14
52,53:8
52,54:9
52,56:28
52,57:6
52,58:6
52,59:23
52,60:28
52,61:28
52,62:8
52,65:28
52,66:28
52,67:28
52,68:31
52,69:13
52,70:15
53,36:17
53,37:17
53,38:17
53,39:23
53,40:20
53,41:23
53,42:22
53,43:22
53,46:23
53,47:22
53,48:17
53,49:23
53,50:22
53,52:8
53,54:17
53,56:20
53,57:2
53,58:2
53,59:15
53,60:20
53,61:20
53,63:8
53,64:8
53,65:20
53,66:20
53,67:20
53,68:23
53,69:5
53,70:23
54,39:40
54,40:37
54,41:6
54,42:5
54,43:5
54,44:17
54,45:17
54,46:40
54,47:5
54,49:40
54,50:5
54,55:5
54,56:37
54,57:15
54,58:15
54,59:32
54,60:37
54,61:37
54,62:17
54,63:9
54,64:9
54,65:37
54,66:37
54,67:37
54,68:40
54,69:22
54,70:6
55,36:5
55,37:5
55,38:5
55,39:45
55,40:42
55,41:1
55,44:22
55,45:22
55,46:45
55,48:5
55,49:45
55,56:42
55,57:20
55,58:20
55,59:37
55,60:42
55,61:42
55,62:22
55,63:14
55,64:14
55,65:42
55,66:42
55,67:42
55,68:45
55,69:27
55,70:1
56,36:37
56,37:37
56,38:37
56,39:3
56,41:43
56,42:42
56,43:42
56,44:20
56,45:20
56,46:3
56,47:42
56,48:37
56,49:3
56,50:42
56,51:20
56,52:28
56,53:20
56,54:37
56,55:42
56,57:22
56,58:22
56,59:5
56,62:20
56,63:28
56,64:28
56,68:3
56,69:15
56,70:43
57,1:1
57,2:1
57,3:1
57,4:1
57,5:1
57,6:7
57,7:1
57,8:8
57,9:21
57,10:8
57,11:6
57,12:6
57,13:17
57,20:10
57,22:17
57,23:12
57,24:21
57,25:7
57,26:22
57,27:22
57,28:22
57,29:2
57,30:7
57,31:12
57,32:7
57,33:12
57,34:22
57,35:2
57,36:15
57,37:15
57,38:15
57,39:25
57,40:22
57,41:21
57,42:20
57,43:20
57,44:2
57,45:2
57,46:25
57,47:20
57,48:15
57,49:25
57,50:20
57,51:2
57,52:6
57,53:2
57,54:15
57,55:20
57,56:22
57,61:22
57,62:2
57,63:6
57,64:6
57,65:22
57,66:22
57,67:22
57,68:25
57,69:7
57,70:21
58,1:1
58,2:1
58,3:1
58,4:1
58,5:1
58,6:7
58,7:1
58,8:8
58,9:21
58,10:8
58,11:6
58,12:6
58,13:17
58,20:10
58,22:17
58,23:12
58,24:21
58,25:7
58,26:22
58,27:22
58,28:22
58,29:2
58,30:7
58,31:12
58,32:7
58,33:12
58,34:22
58,35:2
58,36:15
58,37:15
58,38:15
58,39:25
58,40:22
58,41:21
58,42:20
58,43:20
58,44:2
58,45:2
58,46:25
58,47:20
58,48:15
58,49:25
58,50:20
58,51:2
58,52:6
58,53:2
58,54:15
58,55:20
58,56:22
58,59:17
58,61:22
58,62:2
58,63:6
58,64:6
58,65:22
58,66:22
58,67:22
58,68:25
58,69:7
58,70:21
59,1:18
59,2:18
59,3:18
59,4:18
59,5:18
59,6:10
59,7:18
59,8:25
59,9:38
59,10:25
59,11:23
59,12:23
59,14:17
59,20:7
59,21:17
59,23:29
59,24:38
59,25:10
59,26:5
59,27:5
59,28:5
59,29:15
59,30:10
59,31:29
59,32:10
59,33:29
59,34:5
59,35:15
59,36:32
59,37:32
59,38:32
59,39:8
59,40:5
59,41:38
59,42:37
59,43:37
59,44:15
59,45:15
59,46:8
59,47:37
59,48:32
59,49:8
59,50:37
59,51:15
59,52:23
59,53:15
59,54:32
59,55:37
59,56:5
59,60:5
59,61:5
59,62:15
59,63:23
59,64:23
59,65:5
59,66:5
59,67:5
59,68:8
59,69:10
59,70:38
60,36:37
60,37:37
60,38:37
60,39:3
60,41:43
60,42:42
60,43:42
60,44:20
60,45:20
60,46:3
60,47:42
60,48:37
60,49:3
60,50:42
60,51:20
60,52:28
60,53:20
60,54:37
60,55:42
60,62:20
60,63:28
60,64:28
60,68:3
60,69:15
60,70:43
61,36:37
61,37:37
61,38:37
61,39:3
61,41:43
61,42:42
61,43:42
61,44:20
61,45:20
61,46:3
61,47:42
61,48:37
61,49:3
61,50:42
61,51:20
61,52:28
61,53:20
61,54:37
61,55:42
61,57:22
61,58:22
61,59:5
61,62:20
61,63:28
61,64:28
61,68:3
61,69:15
61,70:43
62,36:17
62,37:17
62,38:17
62,39:23
62,40:20
62,41:23
62,42:22
62,43:22
62,46:23
62,47:22
62,48:17
62,49:23
62,50:22
62,52:8
62,54:17
62,55:22
62,56:20
62,57:2
62,58:2
62,59:15
62,60:20
62,61:20
62,63:8
62,68:23
62,69:5
62,70:23
63,36:9
63,37:9
63,38:9
63,39:31
63,40:28
63,41:15
63,42:14
63,43:14
63,44:8
63,45:8
63,46:31
63,47:14
63,48:9
63,49:31
63,50:14
63,51:8
63,53:8
63,54:9
63,55:14
63,56:28
63,57:6
63,58:6
63,59:23
63,60:28
63,61:28
63,68:31
63,69:13
63,70:15
64,36:9
64,37:9
64,38:9
64,39:31
64,40:28
64,41:15
64,42:14
64,43:14
64,44:8
64,45:8
64,46:31
64,47:14
64,48:9
64,49:31
64,50:14
64,51:8
64,53:8
64,54:9
64,55:14
64,56:28
64,57:6
64,58:6
64,59:23
64,60:28
64,61:28
64,65:28
64,66:28
64,67:28
64,68:31
64,69:13
64,70:15
65,36:37
65,37:37
65,38:37
65,39:3
65,41:43
65,42:42
65,43:42
65,44:20
65,45:20
65,46:3
65,47:42
65,48:37
65,49:3
65,50:42
65,51:20
65,52:28
65,53:20
65,54:37
65,55:42
65,57:22
65,58:22
65,59:5
65,68:3
65,69:15
65,70:43
66,36:37
66,37:37
66,38:37
66,39:3
66,41:43
66,42:42
66,43:42
66,44:20
66,45:20
66,46:3
66,47:42
66,48:37
66,49:3
66,50:42
66,51:20
66,52:28
66,53:20
66,54:37
66,55:42
66,57:22
66,58:22
66,59:5
66,68:3
66,69:15
66,70:43
67,36:37
67,37:37
67,38:37
67,39:3
67,41:43
67,42:42
67,43:42
67,44:20
67,45:20
67,46:3
67,47:42
67,48:37
67,49:3
67,50:42
67,51:20
67,52:28
67,53:20
67,54:37
67,55:42
67,57:22
67,58:22
67,59:5
67,68:3
67,69:15
67,70:43
68,4:26
68,5:26
68,6:18
68,7:26
68,8:33
68,9:46
68,10:33
68,11:31
68,12:31
68,13:8
68,14:25
68,15:46
68,16:18
68,17:31
68,18:15
68,19:15
68,20:15
68,21:25
68,22:8
68,23:37
68,24:46
68,25:18
68,26:3
68,27:3
68,28:3
68,29:23
68,30:18
68,31:37
68,32:18
68,33:37
68,34:3
68,35:23
68,36:40
68,37:40
68,38:40
68,40:3
68,41:46
68,42:45
68,43:45
68,44:23
68,45:23
68,47:45
68,48:40
68,50:45
68,51:23
68,52:31
68,53:23
68,54:40
68,55:45
68,56:3
68,57:25
68,58:25
68,59:8
68,60:3
68,61:3
68,62:23
68,63:31
68,64:31
68,65:3
68,66:3
68,67:3
68,69:18
68,70:46
69,2:8
69,3:8
69,4:8
69,5:8
69,7:8
69,8:15
69,9:28
69,10:15
69,11:13
69,12:13
69,13:10
69,14:7
69,15:28
69,17:13
69,18:3
69,19:3
69,20:3
69,21:7
69,22:10
69,23:19
69,24:28
69,26:15
69,27:15
69,28:15
69,29:5
69,31:19
69,33:19
69,34:15
69,35:5
69,36:22
69,37:22
69,38:22
69,39:18
69,40:15
69,41:28
69,42:27
69,43:27
69,44:5
69,45:5
69,46:18
69,47:27
69,48:22
69,49:18
69,50:27
69,51:5
69,52:13
69,53:5
69,54:22
69,55:27
69,56:15
69,57:7
69,58:7
69,59:10
69,60:15
69,61:15
69,62:5
69,63:13
69,64:13
69,65:15
69,66:15
69,67:15
69,68:18
69,70:28
70,2:20
70,3:20
70,4:20
70,5:20
70,6:28
70,7:20
70,8:13
70,10:13
70,11:15
70,12:15
70,13:38
70,14:21
70,16:28
70,17:15
70,18:31
70,19:31
70,20:31
70,21:21
70,22:38
70,23:9
70,25:28
70,26:43
70,27:43
70,28:43
70,29:23
70,30:28
70,31:9
70,32:28
70,33:9
70,34:43
70,35:23
70,36:6
70,37:6
70,38:6
70,39:46
70,40:43
70,42:1
70,43:1
70,44:23
70,45:23
70,46:46
70,47:1
70,48:6
70,49:46
70,50:1
70,51:23
70,52:15
70,53:23
70,54:6
70,55:1
70,56:43
70,57:21
70,58:21
70,59:38
70,60:43
70,61:43
70,62:23
70,63:15
70,64:15
70,65:43
70,66:43
70,67:43
70,68:46
70,69:28

<setup times backward>
1,16:8
1,18:11
1,19:11
1,20:11
1,21:1
1,22:18
1,30:8
1,57:1
1,58:1
1,59:18
2,16:8
2,18:11
2,19:11
2,20:11
2,21:1
2,22:18
2,30:8
2,57:1
2,58:1
2,59:18
2,69:8
3,16:8
3,18:11
3,19:11
3,20:11
3,21:1
3,22:18
3,30:8
3,57:1
3,58:1
3,59:18
3,69:8
4,16:8
4,18:11
4,19:11
4,20:11
4,21:1
4,22:18
4,30:8
4,57:1
4,58:1
4,59:18
4,68:26
4,69:8
5,16:8
5,18:11
5,19:11
5,20:11
5,21:1
5,22:18
5,57:1
5,58:1
5,59:18
5,68:26
5,69:8
6,18:3
6,19:3
6,20:3
6,22:10
6,59:10
6,68:18
7,6:8
7,16:8
7,18:11
7,19:11
7,20:11
7,21:1
7,22:18
7,30:8
7,57:1
7,58:1
7,59:18
7,68:26
7,69:8
8,1:7
8,2:7
8,3:7
8,4:7
8,5:7
8,6:15
8,7:7
8,11:2
8,16:15
8,17:2
8,18:18
8,19:18
8,20:18
8,21:8
8,22:25
8,30:15
8,57:8
8,58:8
8,59:25
8,68:33
8,69:15
9,1:20
9,2:20
9,3:20
9,4:20
9,5:20
9,6:28
9,7:20
9,8:13
9,16:28
9,17:15
9,18:31
9,19:31
9,20:31
9,21:21
9,22:38
9,30:28
9,57:21
9,58:21
9,59:38
9,68:46
9,69:28
10,1:7
10,2:7
10,3:7
10,4:7
10,5:7
10,6:15
10,7:7
10,16:15
10,17:2
10,18:18
10,19:18
10,20:18
10,21:8
10,22:25
10,30:15
10,57:8
10,58:8
10,59:25
10,68:33
10,69:15
11,1:5
11,2:5
11,3:5
11,4:5
11,5:5
11,6:13
11,7:5
11,16:13
11,18:16
11,19:16
11,20:16
11,21:6
11,22:23
11,30:13
11,57:6
11,58:6
11,59:23
11,68:31
11,69:13
12,1:5
12,2:5
12,3:5
12,4:5
12,5:5
12,6:13
12,7:5
12,16:13
12,18:16
12,19:16
12,20:16
12,21:6
12,22:23
12,30:13
12,57:6
12,58:6
12,59:23
12,68:31
12,69:13
13,68:8
14,6:7
14,13:17
14,16:7
14,18:10
14,19:10
14,20:10
14,22:17
14,30:7
14,59:17
14,68:25
14,69:7
15,1:20
15,2:20
15,3:20
15,4:20
15,5:20
15,6:28
15,7:20
15,8:13
15,10:13
15,11:15
15,12:15
15,13:38
15,14:21
15,30:28
15,68:46
15,69:28
16,13:10
16,68:18
17,1:5
17,2:5
17,3:5
17,4:5
17,5:5
17,6:13
17,7:5
17,13:23
17,14:6
17,16:13
17,18:16
17,30:13
17,68:31
17,69:13
18,13:7
18,68:15
19,13:7
19,68:15
20,13:7
20,22:7
20,59:7
20,68:15
21,6:7
21,13:17
21,16:7
21,18:10
21,19:10
21,20:10
21,22:17
21,30:7
21,59:17
21,68:25
21,69:7
22,68:8
23,1:11
23,2:11
23,3:11
23,4:11
23,5:11
23,6:19
23,7:11
23,8:4
23,10:4
23,11:6
23,12:6
23,13:29
23,14:12
23,16:19
23,17:6
23,18:22
23,19:22
23,20:22
23,21:12
23,22:29
23,30:19
23,57:12
23,58:12
23,59:29
23,68:37
23,69:19
24,1:20
24,2:20
24,3:20
24,4:20
24,5:20
24,6:28
24,7:20
24,8:13
24,10:13
24,11:15
24,12:15
24,13:38
24,14:21
24,16:28
24,17:15
24,18:31
24,19:31
24,20:31
24,21:21
24,22:38
24,23:9
24,30:28
24,31:9
24,32:28
24,33:9
24,34:43
24,57:21
24,58:21
24,59:38
24,68:46
24,69:28
25,13:10
25,18:3
25,19:3
25,20:3
25,22:10
25,34:15
25,59:10
25,68:18
26,68:3
27,68:3
28,68:3
29,6:5
29,13:15
29,16:5
29,18:8
29,19:8
29,20:8
29,22:15
29,25:5
29,26:20
29,27:20
29,28:20
29,30:5
29,32:5
29,34:20
29,59:15
29,68:23
29,69:5
30,13:10
30,18:3
30,19:3
30,20:3
30,22:10
30,26:15
30,27:15
30,28:15
30,34:15
30,59:10
30,68:18
31,1:11
31,2:11
31,3:11
31,4:11
31,5:11
31,6:19
31,7:11
31,8:4
31,10:4
31,11:6
31,12:6
31,13:29
31,14:12
31,16:19
31,17:6
31,18:22
31,19:22
31,20:22
31,21:12
31,22:29
31,25:19
31,26:34
31,27:34
31,28:34
31,29:14
31,30:19
31,34:34
31,57:12
31,58:12
31,59:29
31,68:37
31,69:19
32,13:10
32,18:3
32,19:3
32,20:3
32,22:10
32,26:15
32,27:15
32,28:15
32,34:15
32,59:10
32,68:18
33,1:11
33,2:11
33,3:11
33,4:11
33,5:11
33,6:19
33,7:11
33,8:4
33,10:4
33,11:6
33,12:6
33,13:29
33,14:12
33,16:19
33,17:6
33,18:22
33,19:22
33,20:22
33,21:12
33,22:29
33,25:19
33,26:34
33,27:34
33,28:34
33,29:14
33,30:19
33,32:19
33,57:12
33,58:12
33,59:29
33,68:37
33,69:19
34,68:3
35,6:5
35,13:15
35,16:5
35,18:8
35,19:8
35,20:8
35,22:15
35,25:5
35,26:20
35,27:20
35,28:20
35,30:5
35,32:5
35,34:20
35,59:15
35,68:23
35,69:5
36,1:14
36,2:14
36,3:14
36,4:14
36,5:14
36,6:22
36,7:14
36,8:7
36,10:7
36,11:9
36,12:9
36,13:32
36,14:15
36,16:22
36,17:9
36,18:25
36,19:25
36,20:25
36,21:15
36,22:32
36,23:3
36,25:22
36,26:37
36,27:37
36,28:37
36,29:17
36,30:22
36,31:3
36,32:22
36,33:3
36,34:37
36,35:17
36,44:17
36,45:17
36,46:40
36,49:40
36,51:17
36,52:9
36,53:17
36,56:37
36,57:15
36,58:15
36,59:32
36,60:37
36,61:37
36,62:17
36,63:9
36,64:9
36,65:37
36,66:37
36,67:37
36,68:40
36,69:22
37,1:14
37,2:14
37,3:14
37,4:14
37,5:14
37,6:22
37,7:14
37,8:7
37,10:7
37,11:9
37,12:9
37,13:32
37,14:15
37,16:22
37,17:9
37,18:25
37,19:25
37,20:25
37,21:15
37,22:32
37,23:3
37,25:22
37,26:37
37,27:37
37,28:37
37,29:17
37,30:22
37,31:3
37,32:22
37,33:3
37,34:37
37,35:17
37,44:17
37,45:17
37,46:40
37,49:40
37,51:17
37,52:9
37,53:17
37,56:37
37,57:15
37,58:15
37,59:32
37,60:37
37,61:37
37,62:17
37,63:9
37,64:9
37,65:37
37,66:37
37,67:37
37,68:40
37,69:22
38,1:14
38,2:14
38,3:14
38,4:14
38,5:14
38,6:22
38,7:14
38,8:7
38,10:7
38,11:9
38,12:9
38,13:32
38,14:15
38,16:22
38,17:9
38,18:25
38,19:25
38,20:25
38,21:15
38,22:32
38,23:3
38,25:22
38,26:37
38,27:37
38,28:37
38,29:17
38,30:22
38,31:3
38,32:22
38,33:3
38,34:37
38,35:17
38,44:17
38,45:17
38,46:40
38,49:40
38,51:17
38,52:9
38,53:17
38,56:37
38,57:15
38,58:15
38,59:32
38,60:37
38,61:37
38,62:17
38,63:9
38,64:9
38,65:37
38,66:37
38,67:37
38,68:40
38,69:22
40,39:3
40,46:3
40,49:3
40,68:3
41,1:20
41,2:20
41,3:20
41,4:20
41,5:20
41,6:28
41,7:20
41,8:13
41,10:13
41,11:15
41,12:15
41,13:38
41,14:21
41,16:28
41,17:15
41,18:31
41,19:31
41,20:31
41,21:21
41,22:38
41,23:9
41,25:28
41,26:43
41,27:43
41,28:43
41,29:23
41,30:28
41,31:9
41,32:28
41,33:9
41,34:43
41,35:23
41,36:6
41,37:6
41,38:6
41,39:46
41,40:43
41,44:23
41,45:23
41,46:46
41,47:1
41,48:6
41,49:46
41,51:23
41,52:15
41,53:23
41,54:6
41,55:1
41,56:43
41,57:21
41,58:21
41,59:38
41,60:43
41,61:43
41,62:23
41,63:15
41,64:15
41,65:43
41,66:43
41,67:43
41,68:46
41,69:28
42,1:19
42,2:19
42,3:19
42,4:19
42,5:19
42,6:27
42,7:19
42,8:12
42,10:12
42,11:14
42,12:14
42,13:37
42,14:20
42,16:27
42,17:14
42,18:30
42,19:30
42,20:30
42,21:20
42,22:37
42,23:8
42,25:27
42,26:42
42,27:42
42,28:42
42,29:22
42,30:27
42,31:8
42,32:27
42,33:8
42,34:42
42,35:22
42,36:5
42,37:5
42,38:5
42,39:45
42,40:42
42,44:22
42,45:22
42,46:45
42,48:5
42,49:45
42,51:22
42,52:14
42,53:22
42,54:5
42,56:42
42,57:20
42,58:20
42,59:37
42,60:42
42,61:42
42,62:22
42,63:14
42,64:14
42,65:42
42,66:42
42,67:42
42,68:45
42,69:27
43,1:19
43,2:19
43,3:19
43,4:19
43,5:19
43,6:27
43,7:19
43,8:12
43,10:12
43,11:14
43,12:14
43,13:37
43,14:20
43,16:27
43,17:14
43,18:30
43,19:30
43,20:30
43,21:20
43,22:37
43,23:8
43,25:27
43,26:42
43,27:42
43,28:42
43,29:22
43,30:27
43,31:8
43,32:27
43,33:8
43,34:42
43,35:22
43,36:5
43,37:5
43,38:5
43,39:45
43,40:42
43,44:22
43,45:22
43,46:45
43,48:5
43,49:45
43,51:22
43,52:14
43,53:22
43,54:5
43,56:42
43,57:20
43,58:20
43,59:37
43,60:42
43,61:42
43,62:22
43,63:14
43,64:14
43,65:42
43,66:42
43,67:42
43,68:45
43,69:27
44,6:5
44,13:15
44,16:5
44,18:8
44,19:8
44,20:8
44,22:15
44,25:5
44,26:20
44,27:20
44,28:20
44,30:5
44,32:5
44,34:20
44,39:23
44,40:20
44,49:23
44,56:20
44,59:15
44,60:20
44,61:20
44,65:20
44,66:20
44,67:20
44,68:23
44,69:5
45,6:5
45,13:15
45,16:5
45,18:8
45,19:8
45,20:8
45,22:15
45,25:5
45,26:20
45,27:20
45,28:20
45,30:5
45,32:5
45,34:20
45,39:23
45,40:20
45,49:23
45,56:20
45,59:15
45,60:20
45,61:20
45,65:20
45,66:20
45,67:20
45,68:23
45,69:5
47,1:19
47,2:19
47,3:19
47,4:19
47,5:19
47,6:27
47,7:19
47,8:12
47,10:12
47,11:14
47,12:14
47,13:37
47,14:20
47,16:27
47,17:14
47,18:30
47,19:30
47,20:30
47,21:20
47,22:37
47,23:8
47,25:27
47,26:42
47,27:42
47,28:42
47,29:22
47,30:27
47,31:8
47,32:27
47,33:8
47,34:42
47,35:22
47,36:5
47,37:5
47,38:5
47,39:45
47,40:42
47,44:22
47,45:22
47,46:45
47,48:5
47,49:45
47,51:22
47,52:14
47,53:22
47,54:5
47,56:42
47,57:20
47,58:20
47,59:37
47,60:42
47,61:42
47,62:22
47,63:14
47,64:14
47,65:42
47,66:42
47,67:42
47,68:45
47,69:27
48,1:14
48,2:14
48,3:14
48,4:14
48,5:14
48,6:22
48,7:14
48,8:7
48,10:7
48,11:9
48,12:9
48,13:32
48,14:15
48,16:22
48,17:9
48,18:25
48,19:25
48,20:25
48,21:15
48,22:32
48,23:3
48,25:22
48,26:37
48,27:37
48,28:37
48,29:17
48,30:22
48,31:3
48,32:22
48,33:3
48,34:37
48,35:17
48,39:40
48,40:37
48,44:17
48,45:17
48,46:40
48,51:17
48,52:9
48,53:17
48,56:37
48,57:15
48,58:15
48,59:32
48,60:37
48,61:37
48,62:17
48,63:9
48,64:9
48,65:37
48,66:37
48,67:37
48,68:40
48,69:22
50,1:19
50,2:19
50,3:19
50,4:19
50,5:19
50,6:27
50,7:19
50,8:12
50,10:12
50,11:14
50,12:14
50,13:37
50,14:20
50,16:27
50,17:14
50,18:30
50,19:30
50,20:30
50,21:20
50,22:37
50,23:8
50,25:27
50,26:42
50,27:42
50,28:42
50,29:22
50,30:27
50,31:8
50,32:27
50,33:8
50,34:42
50,35:22
50,36:5
50,37:5
50,38:5
50,39:45
50,40:42
50,44:22
50,45:22
50,46:45
50,48:5
50,49:45
50,51:22
50,52:14
50,53:22
50,54:5
50,56:42
50,57:20
50,58:20
50,59:37
50,60:42
50,61:42
50,62:22
50,63:14
50,64:14
50,65:42
50,66:42
50,67:42
50,68:45
50,69:27
51,6:5
51,13:15
51,16:5
51,18:8
51,19:8
51,20:8
51,22:15
51,25:5
51,26:20
51,27:20
51,28:20
51,30:5
51,32:5
51,34:20
51,39:23
51,40:20
51,46:23
51,49:23
51,56:20
51,59:15
51,60:20
51,61:20
51,65:20
51,66:20
51,67:20
51,68:23
51,69:5
52,1:5
52,2:5
52,3:5
52,4:5
52,5:5
52,6:13
52,7:5
52,13:23
52,14:6
52,16:13
52,18:16
52,19:16
52,20:16
52,21:6
52,22:23
52,25:13
52,26:28
52,27:28
52,28:28
52,29:8
52,30:13
52,32:13
52,34:28
52,35:8
52,39:31
52,40:28
52,44:8
52,45:8
52,46:31
52,49:31
52,51:8
52,53:8
52,56:28
52,57:6
52,58:6
52,59:23
52,60:28
52,61:28
52,62:8
52,65:28
52,66:28
52,67:28
52,68:31
52,69:13
53,6:5
53,13:15
53,16:5
53,18:8
53,19:8
53,20:8
53,22:15
53,25:5
53,26:20
53,27:20
53,28:20
53,30:5
53,32:5
53,34:20
53,39:23
53,40:20
53,46:23
53,49:23
53,56:20
53,59:15
53,60:20
53,61:20
53,65:20
53,66:20
53,67:20
53,68:23
53,69:5
54,1:14
54,2:14
54,3:14
54,4:14
54,5:14
54,6:22
54,7:14
54,8:7
54,10:7
54,11:9
54,12:9
54,13:32
54,14:15
54,16:22
54,17:9
54,18:25
54,19:25
54,20:25
54,21:15
54,22:32
54,23:3
54,25:22
54,26:37
54,27:37
54,28:37
54,29:17
54,30:22
54,31:3
54,32:22
54,33:3
54,34:37
54,35:17
54,39:40
54,40:37
54,44:17
54,45:17
54,46:40
54,49:40
54,51:17
54,52:9
54,53:17
54,56:37
54,57:15
54,58:15
54,59:32
54,60:37
54,61:37
54,62:17
54,63:9
54,64:9
54,65:37
54,66:37
54,67:37
54,68:40
54,69:22
55,1:19
55,2:19
55,3:19
55,4:19
55,5:19
55,6:27
55,7:19
55,8:12
55,10:12
55,11:14
55,12:14
55,13:37
55,14:20
55,16:27
55,17:14
55,18:30
55,19:30
55,20:30
55,21:20
55,22:37
55,23:8
55,25:27
55,26:42
55,27:42
55,28:42
55,29:22
55,30:27
55,31:8
55,32:27
55,33:8
55,34:42
55,35:22
55,36:5
55,37:5
55,38:5
55,39:45
55,40:42
55,44:22
55,45:22
55,46:45
55,48:5
55,49:45
55,51:22
55,52:14
55,53:22
55,54:5
55,56:42
55,57:20
55,58:20
55,59:37
55,60:42
55,61:42
55,62:22
55,63:14
55,64:14
55,65:42
55,66:42
55,67:42
55,68:45
55,69:27
56,39:3
56,46:3
56,49:3
56,68:3
57,6:7
57,13:17
57,16:7
57,18:10
57,19:10
57,20:10
57,22:17
57,25:7
57,26:22
57,27:22
57,28:22
57,29:2
57,30:7
57,32:7
57,34:22
57,35:2
57,39:25
57,40:22
57,44:2
57,45:2
57,46:25
57,49:25
57,51:2
57,53:2
57,56:22
57,61:22
57,62:2
57,65:22
57,66:22
57,67:22
57,68:25
57,69:7
58,6:7
58,13:17
58,16:7
58,18:10
58,19:10
58,20:10
58,22:17
58,25:7
58,26:22
58,27:22
58,28:22
58,29:2
58,30:7
58,32:7
58,34:22
58,35:2
58,39:25
58,40:22
58,44:2
58,45:2
58,46:25
58,49:25
58,51:2
58,53:2
58,56:22
58,61:22
58,62:2
58,65:22
58,66:22
58,67:22
58,68:25
58,69:7
59,26:5
59,27:5
59,28:5
59,34:5
59,39:8
59,40:5
59,46:8
59,49:8
59,56:5
59,61:5
59,65:5
59,66:5
59,67:5
59,68:8
60,39:3
60,46:3
60,49:3
60,68:3
61,39:3
61,46:3
61,49:3
61,68:3
62,6:5
62,13:15
62,16:5
62,18:8
62,19:8
62,20:8
62,22:15
62,25:5
62,26:20
62,27:20
62,28:20
62,30:5
62,32:5
62,34:20
62,39:23
62,40:20
62,46:23
62,49:23
62,56:20
62,59:15
62,60:20
62,61:20
62,68:23
62,69:5
63,1:5
63,2:5
63,3:5
63,4:5
63,5:5
63,6:13
63,7:5
63,13:23
63,14:6
63,16:13
63,18:16
63,19:16
63,20:16
63,21:6
63,22:23
63,25:13
63,26:28
63,27:28
63,28:28
63,29:8
63,30:13
63,32:13
63,34:28
63,35:8
63,39:31
63,40:28
63,44:8
63,45:8
63,46:31
63,49:31
63,51:8
63,53:8
63,56:28
63,57:6
63,58:6
63,59:23
63,60:28
63,61:28
63,62:8
63,68:31
63,69:13
64,1:5
64,2:5
64,3:5
64,4:5
64,5:5
64,6:13
64,7:5
64,13:23
64,14:6
64,16:13
64,18:16
64,19:16
64,20:16
64,21:6
64,22:23
64,25:13
64,26:28
64,27:28
64,28:28
64,29:8
64,30:13
64,32:13
64,34:28
64,35:8
64,39:31
64,40:28
64,44:8
64,45:8
64,46:31
64,49:31
64,51:8
64,53:8
64,56:28
64,57:6
64,58:6
64,59:23
64,60:28
64,61:28
64,62:8
64,68:31
64,69:13
65,39:3
65,46:3
65,49:3
65,68:3
66,39:3
66,46:3
66,49:3
66,68:3
67,39:3
67,46:3
67,49:3
67,68:3
69,13:10
69,18:3
69,19:3
69,20:3
69,22:10
69,26:15
69,27:15
69,28:15
69,34:15
69,39:18
69,40:15
69,46:18
69,49:18
69,56:15
69,59:10
69,60:15
69,61:15
69,65:15
69,66:15
69,67:15
69,68:18
70,1:20
70,2:20
70,3:20
70,4:20
70,5:20
70,6:28
70,7:20
70,8:13
70,10:13
70,11:15
70,12:15
70,13:38
70,14:21
70,16:28
70,17:15
70,18:31
70,19:31
70,20:31
70,21:21
70,22:38
70,23:9
70,25:28
70,26:43
70,27:43
70,28:43
70,29:23
70,30:28
70,31:9
70,32:28
70,33:9
70,34:43
70,35:23
70,36:6
70,37:6
70,38:6
70,39:46
70,40:43
70,42:1
70,43:1
70,44:23
70,45:23
70,46:46
70,47:1
70,48:6
70,49:46
70,50:1
70,51:23
70,52:15
70,53:23
70,54:6
70,55:1
70,56:43
70,57:21
70,58:21
70,59:38
70,60:43
70,61:43
70,62:23
70,63:15
70,64:15
70,65:43
70,66:43
70,67:43
70,68:46
70,69:28

<end>

<optimal SALBP-1 value>
17


<rand seed>
467321153

